62	0

0	3	2	3	4
1	2	5	6
10	3	7	8	9
7	4	7	8	9	10
8	4	7	8	9	10
6	4	7	8	9	10
1	4	11	12	13	16
3	6	14	15	16	17	19	23
7	4	18	19	23	27
2	4	11	12	13	16
9	4	18	20	21	27
3	5	14	15	17	19	23
4	5	14	15	17	19	23
5	4	18	20	21	27
6	3	18	20	21
9	3	20	21	25
4	4	18	20	21	27
4	3	22	25	28
5	3	20	21	25
6	3	24	26	29
4	2	22	28
2	3	24	26	29
10	3	24	26	29
10	5	40	41	42	43	45
9	3	33	37	39
1	4	30	31	35	36
10	4	30	31	35	36
4	4	30	31	35	36
4	2	31	36
7	5	40	41	42	43	45
1	1	32
1	3	33	37	39
1	6	34	38	41	42	43	45
8	3	40	44	48
9	2	40	43
6	5	40	41	42	43	45
4	5	40	41	42	43	45
7	3	40	44	48
2	5	40	41	42	43	45
5	4	46	47	49	53
9	1	44
8	2	44	48
5	2	44	48
1	4	46	47	49	53
10	4	46	47	49	53
1	1	50
9	2	57	58
7	3	52	55	56
2	5	51	52	54	55	56
1	5	51	52	54	55	56
8	2	59	60
4	2	57	58
7	1	56
7	2	57	58
6	2	59	60
2	2	57	58
2	2	59	60
8	1	62
1	1	61
6	1	62
5	1	62
0	0
